DIMACS_lns/graph-1000-251.col
p edge 1000 1843
e 1 220
e 1 32
e 1 974
e 1 648
e 1 772
e 1 951
e 1 100
e 2 165
e 2 634
e 2 822
e 2 192
e 2 255
e 2 742
e 2 122
e 3 415
e 3 245
e 3 530
e 3 903
e 4 925
e 4 767
e 4 494
e 4 942
e 5 822
e 5 573
e 5 282
e 8 691
e 8 682
e 8 669
e 8 503
e 8 917
e 9 35
e 9 666
e 9 46
e 9 906
e 10 495
e 10 897
e 10 239
e 10 488
e 10 597
e 11 525
e 11 484
e 11 272
e 11 41
e 12 642
e 12 533
e 12 710
e 12 27
e 12 847
e 13 172
e 13 744
e 13 487
e 13 39
e 13 970
e 13 426
e 13 906
e 13 843
e 13 463
e 14 473
e 14 257
e 14 690
e 14 73
e 14 708
e 14 391
e 14 799
e 14 448
e 15 583
e 15 745
e 15 311
e 15 491
e 15 255
e 16 342
e 16 236
e 16 750
e 16 215
e 16 723
e 16 60
e 16 857
e 17 186
e 17 620
e 17 215
e 17 459
e 17 326
e 19 838
e 19 628
e 19 868
e 19 339
e 20 565
e 20 742
e 20 263
e 20 707
e 20 499
e 20 662
e 20 438
e 24 292
e 24 360
e 24 336
e 24 816
e 26 340
e 26 851
e 26 634
e 26 142
e 26 976
e 27 581
e 27 863
e 30 759
e 30 940
e 30 562
e 30 680
e 30 661
e 30 662
e 30 742
e 30 294
e 30 454
e 30 310
e 30 133
e 30 242
e 31 853
e 31 941
e 31 251
e 31 688
e 31 462
e 32 208
e 32 288
e 32 697
e 32 490
e 32 451
e 32 414
e 32 690
e 32 133
e 33 658
e 33 940
e 33 379
e 33 583
e 35 694
e 35 236
e 35 270
e 36 336
e 36 539
e 36 725
e 37 212
e 37 300
e 37 721
e 37 932
e 38 577
e 38 56
e 38 270
e 38 664
e 39 184
e 39 52
e 39 818
e 39 974
e 40 759
e 40 884
e 40 976
e 40 239
e 40 737
e 41 427
e 41 186
e 42 136
e 42 734
e 42 307
e 44 218
e 44 941
e 44 298
e 44 247
e 44 852
e 44 124
e 46 959
e 46 861
e 46 417
e 46 434
e 46 774
e 46 803
e 46 130
e 47 68
e 47 734
e 47 957
e 49 840
e 49 358
e 49 943
e 49 626
e 49 435
e 49 891
e 49 778
e 50 826
e 50 325
e 50 230
e 50 643
e 50 525
e 51 371
e 51 542
e 51 311
e 51 141
e 52 150
e 52 292
e 52 353
e 52 847
e 52 736
e 52 835
e 54 469
e 54 284
e 54 471
e 55 519
e 55 313
e 55 383
e 56 969
e 56 869
e 56 288
e 57 259
e 57 654
e 57 364
e 57 74
e 58 689
e 58 252
e 58 712
e 58 850
e 59 84
e 59 492
e 59 753
e 59 394
e 60 646
e 60 997
e 61 435
e 61 534
e 61 607
e 61 729
e 61 286
e 61 133
e 61 314
e 62 918
e 62 233
e 62 542
e 62 928
e 63 988
e 63 293
e 63 540
e 63 188
e 63 169
e 64 976
e 64 273
e 64 818
e 64 682
e 64 630
e 66 248
e 66 870
e 66 401
e 66 915
e 67 469
e 67 149
e 67 171
e 67 482
e 68 281
e 68 639
e 69 819
e 69 758
e 69 966
e 69 590
e 69 288
e 71 669
e 71 250
e 71 167
e 73 633
e 73 389
e 74 104
e 74 75
e 74 626
e 74 739
e 74 911
e 75 531
e 75 376
e 75 527
e 77 298
e 77 707
e 77 256
e 81 558
e 81 784
e 81 130
e 81 309
e 81 188
e 81 557
e 82 493
e 82 504
e 82 706
e 82 508
e 84 112
e 84 302
e 85 89
e 85 203
e 85 304
e 85 722
e 85 386
e 85 989
e 85 911
e 87 398
e 87 422
e 87 911
e 89 843
e 89 446
e 89 311
e 90 687
e 90 696
e 90 819
e 90 509
e 92 166
e 92 783
e 92 872
e 92 268
e 93 719
e 93 924
e 93 1000
e 93 588
e 93 506
e 94 731
e 94 980
e 94 171
e 94 241
e 94 673
e 95 237
e 95 809
e 95 115
e 95 618
e 96 907
e 96 961
e 96 805
e 96 891
e 97 979
e 97 976
e 97 342
e 97 734
e 97 686
e 97 145
e 99 851
e 99 180
e 99 346
e 99 798
e 99 608
e 100 299
e 100 154
e 100 144
e 100 158
e 100 291
e 100 290
e 101 797
e 101 247
e 101 718
e 101 906
e 102 650
e 102 386
e 102 482
e 102 794
e 102 526
e 103 360
e 103 173
e 103 395
e 103 521
e 103 879
e 103 448
e 103 949
e 104 688
e 104 911
e 108 428
e 108 872
e 108 982
e 108 143
e 108 953
e 109 736
e 109 511
e 109 970
e 109 506
e 112 707
e 112 613
e 112 927
e 112 459
e 112 460
e 113 324
e 113 701
e 113 927
e 113 833
e 114 540
e 114 534
e 114 242
e 115 794
e 115 594
e 115 379
e 115 558
e 116 448
e 116 120
e 116 969
e 117 324
e 117 607
e 117 767
e 117 925
e 117 592
e 118 223
e 118 874
e 118 336
e 120 558
e 120 479
e 120 460
e 120 500
e 120 217
e 122 181
e 122 607
e 122 504
e 122 406
e 122 295
e 124 810
e 124 296
e 124 689
e 125 843
e 125 787
e 125 382
e 125 491
e 125 590
e 125 207
e 126 910
e 126 843
e 126 186
e 126 147
e 126 233
e 126 852
e 127 546
e 127 139
e 127 293
e 127 575
e 127 257
e 127 415
e 127 509
e 128 804
e 128 922
e 128 347
e 129 372
e 129 468
e 129 766
e 129 578
e 129 887
e 129 894
e 129 488
e 129 331
e 129 854
e 130 184
e 130 133
e 130 653
e 130 582
e 131 346
e 131 510
e 131 437
e 131 427
e 133 911
e 133 712
e 133 167
e 133 986
e 133 781
e 134 525
e 134 827
e 134 497
e 136 242
e 136 385
e 136 657
e 136 490
e 137 411
e 137 736
e 137 716
e 137 639
e 137 711
e 138 571
e 138 590
e 138 588
e 138 836
e 139 573
e 139 347
e 139 616
e 139 337
e 139 513
e 139 258
e 139 962
e 139 246
e 140 874
e 140 276
e 140 829
e 140 602
e 140 946
e 140 664
e 141 400
e 141 436
e 142 789
e 142 324
e 142 206
e 142 177
e 142 991
e 142 233
e 142 873
e 142 996
e 143 286
e 143 226
e 143 379
e 143 353
e 143 498
e 143 281
e 143 803
e 144 159
e 144 671
e 144 421
e 144 947
e 144 259
e 145 153
e 145 624
e 146 220
e 146 809
e 146 555
e 146 743
e 146 286
e 146 344
e 146 484
e 146 642
e 146 251
e 147 964
e 147 680
e 147 709
e 147 797
e 149 266
e 149 996
e 150 325
e 150 1000
e 150 438
e 151 479
e 151 628
e 151 540
e 151 483
e 152 206
e 152 200
e 152 941
e 152 817
e 152 858
e 153 557
e 153 692
e 153 816
e 154 684
e 154 874
e 154 686
e 154 273
e 157 173
e 157 608
e 157 643
e 158 631
e 158 962
e 158 866
e 158 178
e 158 812
e 158 741
e 159 631
e 159 462
e 159 339
e 160 899
e 160 784
e 160 635
e 160 411
e 160 844
e 160 503
e 160 165
e 163 959
e 163 671
e 163 987
e 163 615
e 163 819
e 163 814
e 164 311
e 164 746
e 164 992
e 164 235
e 164 957
e 164 512
e 164 352
e 165 425
e 165 897
e 165 927
e 165 995
e 166 197
e 166 514
e 167 454
e 169 633
e 169 636
e 169 253
e 171 309
e 171 312
e 171 884
e 171 627
e 171 933
e 171 920
e 172 947
e 172 351
e 172 746
e 172 474
e 173 883
e 173 743
e 173 312
e 174 413
e 174 661
e 174 819
e 174 440
e 174 250
e 175 860
e 175 546
e 175 223
e 176 298
e 176 177
e 176 771
e 176 436
e 176 355
e 177 416
e 177 354
e 177 783
e 177 281
e 177 473
e 178 827
e 178 860
e 178 998
e 179 916
e 179 683
e 179 295
e 180 517
e 180 754
e 180 364
e 181 400
e 181 515
e 181 457
e 184 344
e 184 199
e 184 230
e 184 547
e 184 607
e 184 820
e 184 369
e 184 228
e 184 200
e 185 316
e 185 215
e 185 342
e 185 994
e 186 947
e 188 601
e 188 925
e 188 909
e 189 315
e 189 683
e 189 437
e 189 951
e 192 784
e 192 217
e 192 956
e 192 288
e 193 746
e 193 816
e 193 981
e 193 274
e 193 505
e 193 926
e 194 711
e 194 342
e 194 588
e 194 214
e 195 996
e 195 767
e 195 713
e 196 384
e 196 600
e 196 987
e 197 958
e 197 387
e 197 941
e 199 863
e 199 468
e 199 635
e 200 686
e 200 618
e 201 844
e 201 848
e 201 870
e 202 347
e 202 891
e 202 690
e 202 742
e 202 559
e 203 363
e 203 394
e 203 429
e 204 864
e 204 802
e 204 941
e 206 407
e 206 776
e 206 948
e 206 907
e 206 487
e 207 974
e 207 270
e 207 878
e 208 817
e 208 360
e 208 527
e 209 494
e 209 929
e 209 933
e 212 494
e 212 738
e 212 821
e 212 921
e 212 546
e 212 620
e 213 480
e 213 911
e 213 238
e 214 909
e 214 484
e 214 722
e 216 962
e 216 560
e 216 351
e 217 591
e 217 574
e 217 935
e 217 329
e 217 767
e 217 581
e 218 780
e 218 878
e 218 994
e 220 296
e 220 730
e 220 802
e 220 805
e 221 499
e 221 898
e 221 420
e 221 996
e 223 637
e 223 503
e 225 992
e 225 894
e 225 612
e 226 874
e 226 597
e 227 989
e 227 334
e 227 727
e 227 266
e 228 842
e 228 450
e 228 860
e 230 842
e 230 675
e 230 699
e 231 686
e 231 819
e 231 309
e 233 278
e 233 619
e 233 468
e 233 734
e 235 810
e 235 443
e 235 296
e 236 350
e 236 323
e 236 381
e 237 569
e 237 548
e 237 556
e 237 449
e 238 848
e 238 988
e 238 805
e 239 794
e 239 498
e 239 478
e 240 894
e 240 679
e 240 884
e 240 602
e 240 874
e 240 650
e 241 607
e 241 717
e 241 406
e 241 338
e 241 711
e 242 549
e 242 998
e 242 961
e 242 388
e 242 408
e 243 925
e 243 439
e 243 346
e 243 470
e 244 425
e 244 379
e 244 458
e 244 962
e 244 774
e 245 541
e 245 989
e 245 401
e 246 510
e 246 498
e 247 687
e 247 826
e 247 986
e 248 871
e 248 680
e 250 706
e 250 608
e 250 847
e 251 927
e 251 393
e 251 635
e 251 686
e 252 494
e 252 627
e 253 868
e 253 982
e 253 357
e 253 468
e 255 957
e 256 380
e 256 289
e 257 355
e 257 696
e 257 776
e 257 926
e 257 314
e 258 517
e 258 729
e 258 503
e 259 832
e 259 710
e 259 399
e 262 754
e 262 896
e 262 494
e 263 851
e 263 366
e 266 467
e 267 893
e 267 287
e 267 754
e 267 760
e 268 646
e 268 798
e 268 456
e 268 291
e 268 558
e 270 390
e 270 488
e 270 953
e 270 374
e 272 933
e 272 880
e 272 721
e 273 560
e 273 919
e 274 899
e 274 390
e 276 448
e 276 858
e 276 997
e 276 880
e 276 921
e 277 608
e 277 933
e 277 292
e 277 360
e 278 337
e 278 445
e 278 489
e 278 360
e 278 346
e 278 974
e 281 788
e 282 895
e 282 626
e 283 767
e 283 489
e 283 529
e 283 443
e 283 289
e 283 933
e 284 901
e 284 435
e 286 997
e 286 629
e 286 519
e 286 381
e 287 460
e 287 440
e 287 302
e 288 381
e 288 648
e 288 752
e 288 500
e 288 653
e 289 376
e 290 666
e 290 303
e 291 311
e 291 698
e 291 534
e 291 851
e 291 838
e 292 946
e 292 843
e 292 879
e 292 300
e 292 929
e 293 866
e 293 682
e 293 701
e 294 755
e 294 343
e 294 462
e 295 645
e 295 873
e 295 368
e 295 661
e 296 556
e 296 385
e 298 300
e 299 369
e 299 401
e 299 871
e 300 383
e 300 505
e 300 816
e 302 473
e 302 986
e 302 767
e 302 798
e 303 319
e 303 518
e 303 492
e 304 546
e 304 492
e 304 528
e 307 464
e 307 614
e 309 560
e 309 688
e 309 612
e 309 663
e 310 955
e 310 754
e 311 541
e 311 931
e 311 992
e 312 763
e 312 771
e 312 536
e 312 799
e 313 977
e 313 678
e 314 978
e 314 491
e 315 385
e 315 940
e 315 687
e 316 672
e 316 852
e 316 449
e 316 434
e 317 491
e 317 521
e 317 955
e 318 763
e 318 370
e 318 872
e 318 787
e 318 901
e 318 739
e 319 559
e 319 395
e 319 987
e 319 918
e 319 966
e 319 832
e 319 484
e 319 715
e 319 533
e 322 509
e 322 428
e 322 599
e 322 355
e 323 781
e 323 936
e 323 334
e 323 788
e 323 846
e 324 341
e 324 343
e 324 588
e 325 412
e 325 690
e 325 832
e 326 999
e 326 385
e 326 970
e 329 795
e 329 671
e 329 573
e 330 663
e 330 658
e 330 379
e 331 497
e 331 941
e 332 935
e 332 866
e 332 937
e 332 631
e 332 955
e 334 484
e 334 890
e 335 727
e 335 369
e 335 367
e 335 619
e 336 835
e 337 371
e 338 571
e 338 450
e 339 666
e 339 426
e 339 731
e 339 443
e 340 947
e 340 926
e 340 750
e 340 821
e 340 914
e 340 820
e 340 495
e 341 594
e 341 750
e 341 445
e 341 873
e 341 764
e 341 918
e 341 652
e 342 789
e 342 959
e 342 701
e 343 689
e 343 982
e 343 742
e 344 768
e 344 391
e 344 846
e 344 569
e 346 513
e 346 531
e 346 616
e 346 811
e 346 949
e 346 582
e 347 512
e 347 556
e 348 891
e 348 941
e 348 871
e 348 670
e 348 898
e 350 478
e 350 981
e 350 386
e 351 406
e 351 827
e 351 535
e 351 558
e 351 601
e 351 642
e 351 708
e 352 842
e 352 597
e 352 528
e 353 923
e 353 703
e 353 706
e 354 866
e 354 927
e 355 462
e 357 384
e 357 376
e 358 697
e 358 414
e 360 803
e 363 942
e 363 721
e 363 366
e 363 743
e 363 737
e 364 459
e 364 384
e 364 672
e 366 499
e 366 420
e 366 851
e 366 661
e 367 464
e 367 682
e 368 866
e 368 469
e 368 569
e 368 653
e 369 602
e 369 472
e 369 725
e 369 853
e 369 389
e 369 434
e 369 943
e 369 852
e 369 999
e 369 437
e 370 587
e 370 633
e 371 975
e 372 687
e 372 684
e 372 692
e 372 507
e 374 897
e 374 974
e 374 454
e 376 654
e 376 903
e 376 415
e 379 620
e 379 663
e 379 974
e 379 962
e 380 778
e 380 399
e 380 688
e 382 517
e 382 882
e 383 456
e 383 558
e 384 658
e 385 914
e 385 616
e 386 936
e 387 826
e 387 924
e 387 614
e 388 526
e 388 695
e 388 995
e 388 613
e 388 822
e 389 719
e 389 537
e 389 837
e 390 730
e 390 648
e 390 988
e 391 800
e 391 646
e 391 729
e 393 977
e 393 916
e 393 885
e 394 854
e 395 627
e 395 425
e 398 701
e 398 990
e 398 631
e 399 895
e 399 645
e 399 451
e 399 601
e 400 776
e 400 772
e 400 671
e 400 488
e 401 630
e 401 517
e 401 689
e 401 670
e 401 404
e 404 573
e 404 504
e 404 915
e 406 554
e 407 852
e 407 669
e 407 819
e 407 864
e 408 789
e 408 628
e 408 925
e 411 980
e 412 951
e 412 589
e 412 661
e 412 819
e 413 716
e 413 634
e 413 741
e 414 758
e 414 699
e 414 794
e 415 578
e 415 922
e 415 577
e 415 463
e 416 848
e 416 887
e 416 877
e 417 987
e 417 958
e 417 554
e 418 592
e 418 539
e 418 828
e 418 792
e 418 986
e 420 863
e 421 457
e 421 494
e 422 506
e 422 980
e 422 933
e 422 858
e 424 599
e 424 521
e 424 750
e 424 837
e 426 763
e 426 613
e 426 770
e 426 771
e 427 942
e 427 519
e 427 723
e 428 721
e 428 442
e 428 984
e 428 841
e 428 788
e 429 760
e 429 771
e 430 715
e 430 874
e 430 954
e 434 991
e 434 795
e 434 882
e 434 770
e 434 964
e 435 634
e 436 893
e 436 770
e 437 832
e 438 442
e 438 557
e 438 894
e 438 467
e 438 810
e 438 798
e 439 654
e 439 472
e 440 993
e 440 691
e 440 565
e 440 755
e 440 781
e 440 979
e 440 650
e 442 696
e 443 717
e 443 877
e 443 575
e 445 512
e 446 772
e 446 694
e 447 531
e 447 851
e 447 541
e 448 584
e 449 753
e 450 988
e 451 575
e 454 812
e 454 775
e 454 711
e 456 706
e 456 594
e 457 992
e 458 471
e 458 682
e 458 933
e 459 644
e 459 978
e 459 766
e 462 811
e 462 562
e 462 837
e 463 619
e 464 866
e 467 818
e 468 836
e 469 691
e 469 819
e 469 832
e 470 883
e 470 964
e 471 487
e 471 712
e 471 709
e 472 698
e 472 884
e 473 753
e 474 484
e 474 995
e 475 828
e 475 718
e 475 639
e 475 594
e 475 701
e 475 933
e 478 754
e 479 927
e 480 663
e 480 730
e 480 588
e 482 921
e 482 931
e 483 549
e 483 642
e 483 980
e 484 515
e 484 753
e 484 924
e 487 906
e 487 536
e 487 503
e 487 810
e 487 569
e 488 808
e 489 494
e 489 848
e 490 890
e 490 814
e 491 767
e 492 926
e 492 559
e 492 696
e 493 742
e 493 859
e 493 671
e 495 859
e 495 986
e 495 558
e 497 514
e 497 713
e 497 613
e 497 917
e 498 670
e 498 760
e 499 937
e 499 852
e 499 613
e 500 833
e 500 773
e 503 546
e 503 518
e 503 974
e 503 900
e 503 869
e 503 789
e 504 660
e 505 651
e 505 969
e 505 699
e 506 686
e 506 984
e 506 653
e 507 868
e 507 513
e 508 879
e 508 682
e 508 788
e 509 584
e 509 808
e 510 675
e 510 854
e 510 848
e 511 673
e 511 536
e 512 539
e 512 628
e 513 811
e 513 959
e 514 961
e 514 675
e 514 518
e 515 658
e 515 903
e 517 650
e 517 814
e 517 799
e 519 776
e 520 657
e 520 573
e 520 695
e 521 527
e 525 539
e 525 858
e 526 846
e 526 964
e 527 675
e 527 717
e 527 774
e 527 861
e 528 535
e 528 554
e 528 834
e 529 849
e 529 860
e 529 744
e 530 608
e 530 560
e 531 730
e 531 951
e 531 663
e 531 778
e 533 546
e 535 1000
e 535 739
e 536 734
e 537 554
e 537 767
e 539 878
e 540 943
e 540 816
e 542 897
e 542 814
e 546 780
e 546 874
e 547 713
e 547 652
e 547 894
e 548 562
e 548 775
e 548 631
e 549 707
e 549 850
e 549 791
e 549 833
e 549 651
e 549 885
e 549 974
e 549 554
e 554 952
e 554 607
e 554 776
e 554 621
e 554 597
e 555 757
e 555 969
e 556 701
e 557 952
e 558 599
e 560 739
e 560 619
e 560 821
e 560 794
e 561 750
e 561 707
e 561 927
e 562 731
e 563 618
e 563 763
e 563 750
e 565 871
e 565 601
e 565 651
e 565 630
e 571 941
e 573 829
e 574 835
e 574 982
e 577 864
e 577 660
e 577 711
e 578 717
e 578 804
e 579 893
e 579 995
e 579 918
e 581 821
e 581 905
e 582 958
e 582 942
e 583 712
e 583 846
e 583 931
e 583 653
e 583 798
e 584 931
e 587 703
e 587 744
e 588 884
e 588 771
e 588 919
e 589 730
e 589 629
e 591 766
e 591 984
e 591 951
e 591 654
e 592 841
e 592 928
e 594 803
e 597 918
e 597 674
e 598 894
e 598 917
e 598 617
e 599 738
e 600 882
e 600 999
e 600 819
e 600 626
e 602 607
e 602 936
e 605 878
e 605 898
e 605 615
e 608 915
e 608 866
e 608 979
e 609 742
e 609 750
e 609 910
e 609 953
e 612 617
e 612 890
e 613 769
e 613 863
e 614 940
e 614 627
e 615 969
e 615 815
e 615 948
e 615 820
e 616 958
e 616 738
e 616 762
e 616 990
e 617 694
e 617 872
e 618 712
e 618 900
e 618 841
e 620 805
e 620 760
e 621 906
e 621 798
e 623 694
e 623 797
e 623 833
e 624 834
e 624 710
e 624 964
e 626 648
e 626 797
e 627 922
e 629 708
e 629 915
e 630 695
e 630 653
e 631 767
e 634 636
e 636 848
e 636 783
e 637 966
e 637 784
e 637 943
e 641 802
e 641 900
e 641 953
e 642 674
e 642 770
e 643 750
e 644 657
e 644 924
e 645 717
e 646 684
e 646 951
e 646 842
e 648 664
e 650 734
e 650 846
e 651 783
e 652 669
e 652 800
e 653 707
e 654 769
e 657 854
e 658 841
e 660 712
e 660 823
e 661 910
e 661 964
e 661 725
e 662 776
e 662 979
e 663 819
e 663 981
e 663 774
e 664 767
e 666 745
e 666 970
e 669 920
e 669 953
e 669 961
e 671 986
e 672 776
e 672 932
e 673 758
e 673 740
e 674 903
e 674 758
e 674 780
e 675 961
e 675 943
e 678 969
e 678 949
e 679 772
e 679 766
e 682 956
e 683 942
e 684 991
e 686 819
e 686 818
e 686 849
e 687 810
e 687 909
e 687 929
e 689 736
e 689 920
e 689 815
e 690 778
e 690 718
e 690 872
e 690 850
e 691 937
e 691 982
e 691 826
e 692 797
e 695 716
e 695 840
e 695 778
e 697 999
e 698 826
e 698 828
e 699 760
e 701 762
e 703 753
e 706 923
e 706 871
e 708 760
e 709 874
e 710 887
e 711 757
e 712 792
e 713 737
e 715 792
e 716 808
e 717 773
e 718 996
e 719 952
e 719 725
e 721 802
e 722 832
e 722 764
e 722 929
e 723 854
e 725 919
e 726 916
e 726 808
e 726 768
e 727 859
e 730 998
e 730 1000
e 736 930
e 738 852
e 739 989
e 740 966
e 740 991
e 741 922
e 741 851
e 745 787
e 745 769
e 745 771
e 746 952
e 750 792
e 750 874
e 752 755
e 752 952
e 752 767
e 753 835
e 754 894
e 754 874
e 757 780
e 758 926
e 759 844
e 760 872
e 760 936
e 762 914
e 762 977
e 763 877
e 763 946
e 764 914
e 766 992
e 766 905
e 767 928
e 768 948
e 768 906
e 769 828
e 769 915
e 769 899
e 770 976
e 771 837
e 773 804
e 775 809
e 775 970
e 775 885
e 776 933
e 776 978
e 778 869
e 780 975
e 781 812
e 781 837
e 783 894
e 784 947
e 784 836
e 784 993
e 784 805
e 787 905
e 787 999
e 788 854
e 788 838
e 789 800
e 789 818
e 791 990
e 791 815
e 795 918
e 797 962
e 798 866
e 799 993
e 800 816
e 803 989
e 808 814
e 808 919
e 809 951
e 810 918
e 814 906
e 814 879
e 815 942
e 815 919
e 816 827
e 817 955
e 817 970
e 818 864
e 819 852
e 822 984
e 823 915
e 823 930
e 823 916
e 826 835
e 828 926
e 829 849
e 832 849
e 833 857
e 834 935
e 836 951
e 838 916
e 838 853
e 840 910
e 841 906
e 842 953
e 844 953
e 844 930
e 848 933
e 849 863
e 853 964
e 853 918
e 854 982
e 857 953
e 858 897
e 861 988
e 861 936
e 861 997
e 863 937
e 869 961
e 870 999
e 871 903
e 874 942
e 879 919
e 880 907
e 883 907
e 883 890
e 884 893
e 884 981
e 885 930
e 887 919
e 895 961
e 895 975
e 896 918
e 896 933
e 898 993
e 901 979
e 903 924
e 905 988
e 906 921
e 911 926
e 915 994
e 917 954
e 920 964
e 923 999
e 925 990
e 925 956
e 925 943
e 927 979
e 929 969
e 929 949
e 932 986
e 954 996
e 966 984
e 966 981
e 974 980
e 974 981
