txt_Ins/graph-1000-251.txt
n 1000
e 0 219
e 0 31
e 0 973
e 0 647
e 0 771
e 0 950
e 0 99
e 1 164
e 1 633
e 1 821
e 1 191
e 1 254
e 1 741
e 1 121
e 2 414
e 2 244
e 2 529
e 2 902
e 3 924
e 3 766
e 3 493
e 3 941
e 4 821
e 4 572
e 4 281
e 7 690
e 7 681
e 7 668
e 7 502
e 7 916
e 8 34
e 8 665
e 8 45
e 8 905
e 9 494
e 9 896
e 9 238
e 9 487
e 9 596
e 10 524
e 10 483
e 10 271
e 10 40
e 11 641
e 11 532
e 11 709
e 11 26
e 11 846
e 12 171
e 12 743
e 12 486
e 12 38
e 12 969
e 12 425
e 12 905
e 12 842
e 12 462
e 13 472
e 13 256
e 13 689
e 13 72
e 13 707
e 13 390
e 13 798
e 13 447
e 14 582
e 14 744
e 14 310
e 14 490
e 14 254
e 15 341
e 15 235
e 15 749
e 15 214
e 15 722
e 15 59
e 15 856
e 16 185
e 16 619
e 16 214
e 16 458
e 16 325
e 18 837
e 18 627
e 18 867
e 18 338
e 19 564
e 19 741
e 19 262
e 19 706
e 19 498
e 19 661
e 19 437
e 23 291
e 23 359
e 23 335
e 23 815
e 25 339
e 25 850
e 25 633
e 25 141
e 25 975
e 26 580
e 26 862
e 29 758
e 29 939
e 29 561
e 29 679
e 29 660
e 29 661
e 29 741
e 29 293
e 29 453
e 29 309
e 29 132
e 29 241
e 30 852
e 30 940
e 30 250
e 30 687
e 30 461
e 31 207
e 31 287
e 31 696
e 31 489
e 31 450
e 31 413
e 31 689
e 31 132
e 32 657
e 32 939
e 32 378
e 32 582
e 34 693
e 34 235
e 34 269
e 35 335
e 35 538
e 35 724
e 36 211
e 36 299
e 36 720
e 36 931
e 37 576
e 37 55
e 37 269
e 37 663
e 38 183
e 38 51
e 38 817
e 38 973
e 39 758
e 39 883
e 39 975
e 39 238
e 39 736
e 40 426
e 40 185
e 41 135
e 41 733
e 41 306
e 43 217
e 43 940
e 43 297
e 43 246
e 43 851
e 43 123
e 45 958
e 45 860
e 45 416
e 45 433
e 45 773
e 45 802
e 45 129
e 46 67
e 46 733
e 46 956
e 48 839
e 48 357
e 48 942
e 48 625
e 48 434
e 48 890
e 48 777
e 49 825
e 49 324
e 49 229
e 49 642
e 49 524
e 50 370
e 50 541
e 50 310
e 50 140
e 51 149
e 51 291
e 51 352
e 51 846
e 51 735
e 51 834
e 53 468
e 53 283
e 53 470
e 54 518
e 54 312
e 54 382
e 55 968
e 55 868
e 55 287
e 56 258
e 56 653
e 56 363
e 56 73
e 57 688
e 57 251
e 57 711
e 57 849
e 58 83
e 58 491
e 58 752
e 58 393
e 59 645
e 59 996
e 60 434
e 60 533
e 60 606
e 60 728
e 60 285
e 60 132
e 60 313
e 61 917
e 61 232
e 61 541
e 61 927
e 62 987
e 62 292
e 62 539
e 62 187
e 62 168
e 63 975
e 63 272
e 63 817
e 63 681
e 63 629
e 65 247
e 65 869
e 65 400
e 65 914
e 66 468
e 66 148
e 66 170
e 66 481
e 67 280
e 67 638
e 68 818
e 68 757
e 68 965
e 68 589
e 68 287
e 70 668
e 70 249
e 70 166
e 72 632
e 72 388
e 73 103
e 73 74
e 73 625
e 73 738
e 73 910
e 74 530
e 74 375
e 74 526
e 76 297
e 76 706
e 76 255
e 80 557
e 80 783
e 80 129
e 80 308
e 80 187
e 80 556
e 81 492
e 81 503
e 81 705
e 81 507
e 83 111
e 83 301
e 84 88
e 84 202
e 84 303
e 84 721
e 84 385
e 84 988
e 84 910
e 86 397
e 86 421
e 86 910
e 88 842
e 88 445
e 88 310
e 89 686
e 89 695
e 89 818
e 89 508
e 91 165
e 91 782
e 91 871
e 91 267
e 92 718
e 92 923
e 92 999
e 92 587
e 92 505
e 93 730
e 93 979
e 93 170
e 93 240
e 93 672
e 94 236
e 94 808
e 94 114
e 94 617
e 95 906
e 95 960
e 95 804
e 95 890
e 96 978
e 96 975
e 96 341
e 96 733
e 96 685
e 96 144
e 98 850
e 98 179
e 98 345
e 98 797
e 98 607
e 99 298
e 99 153
e 99 143
e 99 157
e 99 290
e 99 289
e 100 796
e 100 246
e 100 717
e 100 905
e 101 649
e 101 385
e 101 481
e 101 793
e 101 525
e 102 359
e 102 172
e 102 394
e 102 520
e 102 878
e 102 447
e 102 948
e 103 687
e 103 910
e 107 427
e 107 871
e 107 981
e 107 142
e 107 952
e 108 735
e 108 510
e 108 969
e 108 505
e 111 706
e 111 612
e 111 926
e 111 458
e 111 459
e 112 323
e 112 700
e 112 926
e 112 832
e 113 539
e 113 533
e 113 241
e 114 793
e 114 593
e 114 378
e 114 557
e 115 447
e 115 119
e 115 968
e 116 323
e 116 606
e 116 766
e 116 924
e 116 591
e 117 222
e 117 873
e 117 335
e 119 557
e 119 478
e 119 459
e 119 499
e 119 216
e 121 180
e 121 606
e 121 503
e 121 405
e 121 294
e 123 809
e 123 295
e 123 688
e 124 842
e 124 786
e 124 381
e 124 490
e 124 589
e 124 206
e 125 909
e 125 842
e 125 185
e 125 146
e 125 232
e 125 851
e 126 545
e 126 138
e 126 292
e 126 574
e 126 256
e 126 414
e 126 508
e 127 803
e 127 921
e 127 346
e 128 371
e 128 467
e 128 765
e 128 577
e 128 886
e 128 893
e 128 487
e 128 330
e 128 853
e 129 183
e 129 132
e 129 652
e 129 581
e 130 345
e 130 509
e 130 436
e 130 426
e 132 910
e 132 711
e 132 166
e 132 985
e 132 780
e 133 524
e 133 826
e 133 496
e 135 241
e 135 384
e 135 656
e 135 489
e 136 410
e 136 735
e 136 715
e 136 638
e 136 710
e 137 570
e 137 589
e 137 587
e 137 835
e 138 572
e 138 346
e 138 615
e 138 336
e 138 512
e 138 257
e 138 961
e 138 245
e 139 873
e 139 275
e 139 828
e 139 601
e 139 945
e 139 663
e 140 399
e 140 435
e 141 788
e 141 323
e 141 205
e 141 176
e 141 990
e 141 232
e 141 872
e 141 995
e 142 285
e 142 225
e 142 378
e 142 352
e 142 497
e 142 280
e 142 802
e 143 158
e 143 670
e 143 420
e 143 946
e 143 258
e 144 152
e 144 623
e 145 219
e 145 808
e 145 554
e 145 742
e 145 285
e 145 343
e 145 483
e 145 641
e 145 250
e 146 963
e 146 679
e 146 708
e 146 796
e 148 265
e 148 995
e 149 324
e 149 999
e 149 437
e 150 478
e 150 627
e 150 539
e 150 482
e 151 205
e 151 199
e 151 940
e 151 816
e 151 857
e 152 556
e 152 691
e 152 815
e 153 683
e 153 873
e 153 685
e 153 272
e 156 172
e 156 607
e 156 642
e 157 630
e 157 961
e 157 865
e 157 177
e 157 811
e 157 740
e 158 630
e 158 461
e 158 338
e 159 898
e 159 783
e 159 634
e 159 410
e 159 843
e 159 502
e 159 164
e 162 958
e 162 670
e 162 986
e 162 614
e 162 818
e 162 813
e 163 310
e 163 745
e 163 991
e 163 234
e 163 956
e 163 511
e 163 351
e 164 424
e 164 896
e 164 926
e 164 994
e 165 196
e 165 513
e 166 453
e 168 632
e 168 635
e 168 252
e 170 308
e 170 311
e 170 883
e 170 626
e 170 932
e 170 919
e 171 946
e 171 350
e 171 745
e 171 473
e 172 882
e 172 742
e 172 311
e 173 412
e 173 660
e 173 818
e 173 439
e 173 249
e 174 859
e 174 545
e 174 222
e 175 297
e 175 176
e 175 770
e 175 435
e 175 354
e 176 415
e 176 353
e 176 782
e 176 280
e 176 472
e 177 826
e 177 859
e 177 997
e 178 915
e 178 682
e 178 294
e 179 516
e 179 753
e 179 363
e 180 399
e 180 514
e 180 456
e 183 343
e 183 198
e 183 229
e 183 546
e 183 606
e 183 819
e 183 368
e 183 227
e 183 199
e 184 315
e 184 214
e 184 341
e 184 993
e 185 946
e 187 600
e 187 924
e 187 908
e 188 314
e 188 682
e 188 436
e 188 950
e 191 783
e 191 216
e 191 955
e 191 287
e 192 745
e 192 815
e 192 980
e 192 273
e 192 504
e 192 925
e 193 710
e 193 341
e 193 587
e 193 213
e 194 995
e 194 766
e 194 712
e 195 383
e 195 599
e 195 986
e 196 957
e 196 386
e 196 940
e 198 862
e 198 467
e 198 634
e 199 685
e 199 617
e 200 843
e 200 847
e 200 869
e 201 346
e 201 890
e 201 689
e 201 741
e 201 558
e 202 362
e 202 393
e 202 428
e 203 863
e 203 801
e 203 940
e 205 406
e 205 775
e 205 947
e 205 906
e 205 486
e 206 973
e 206 269
e 206 877
e 207 816
e 207 359
e 207 526
e 208 493
e 208 928
e 208 932
e 211 493
e 211 737
e 211 820
e 211 920
e 211 545
e 211 619
e 212 479
e 212 910
e 212 237
e 213 908
e 213 483
e 213 721
e 215 961
e 215 559
e 215 350
e 216 590
e 216 573
e 216 934
e 216 328
e 216 766
e 216 580
e 217 779
e 217 877
e 217 993
e 219 295
e 219 729
e 219 801
e 219 804
e 220 498
e 220 897
e 220 419
e 220 995
e 222 636
e 222 502
e 224 991
e 224 893
e 224 611
e 225 873
e 225 596
e 226 988
e 226 333
e 226 726
e 226 265
e 227 841
e 227 449
e 227 859
e 229 841
e 229 674
e 229 698
e 230 685
e 230 818
e 230 308
e 232 277
e 232 618
e 232 467
e 232 733
e 234 809
e 234 442
e 234 295
e 235 349
e 235 322
e 235 380
e 236 568
e 236 547
e 236 555
e 236 448
e 237 847
e 237 987
e 237 804
e 238 793
e 238 497
e 238 477
e 239 893
e 239 678
e 239 883
e 239 601
e 239 873
e 239 649
e 240 606
e 240 716
e 240 405
e 240 337
e 240 710
e 241 548
e 241 997
e 241 960
e 241 387
e 241 407
e 242 924
e 242 438
e 242 345
e 242 469
e 243 424
e 243 378
e 243 457
e 243 961
e 243 773
e 244 540
e 244 988
e 244 400
e 245 509
e 245 497
e 246 686
e 246 825
e 246 985
e 247 870
e 247 679
e 249 705
e 249 607
e 249 846
e 250 926
e 250 392
e 250 634
e 250 685
e 251 493
e 251 626
e 252 867
e 252 981
e 252 356
e 252 467
e 254 956
e 255 379
e 255 288
e 256 354
e 256 695
e 256 775
e 256 925
e 256 313
e 257 516
e 257 728
e 257 502
e 258 831
e 258 709
e 258 398
e 261 753
e 261 895
e 261 493
e 262 850
e 262 365
e 265 466
e 266 892
e 266 286
e 266 753
e 266 759
e 267 645
e 267 797
e 267 455
e 267 290
e 267 557
e 269 389
e 269 487
e 269 952
e 269 373
e 271 932
e 271 879
e 271 720
e 272 559
e 272 918
e 273 898
e 273 389
e 275 447
e 275 857
e 275 996
e 275 879
e 275 920
e 276 607
e 276 932
e 276 291
e 276 359
e 277 336
e 277 444
e 277 488
e 277 359
e 277 345
e 277 973
e 280 787
e 281 894
e 281 625
e 282 766
e 282 488
e 282 528
e 282 442
e 282 288
e 282 932
e 283 900
e 283 434
e 285 996
e 285 628
e 285 518
e 285 380
e 286 459
e 286 439
e 286 301
e 287 380
e 287 647
e 287 751
e 287 499
e 287 652
e 288 375
e 289 665
e 289 302
e 290 310
e 290 697
e 290 533
e 290 850
e 290 837
e 291 945
e 291 842
e 291 878
e 291 299
e 291 928
e 292 865
e 292 681
e 292 700
e 293 754
e 293 342
e 293 461
e 294 644
e 294 872
e 294 367
e 294 660
e 295 555
e 295 384
e 297 299
e 298 368
e 298 400
e 298 870
e 299 382
e 299 504
e 299 815
e 301 472
e 301 985
e 301 766
e 301 797
e 302 318
e 302 517
e 302 491
e 303 545
e 303 491
e 303 527
e 306 463
e 306 613
e 308 559
e 308 687
e 308 611
e 308 662
e 309 954
e 309 753
e 310 540
e 310 930
e 310 991
e 311 762
e 311 770
e 311 535
e 311 798
e 312 976
e 312 677
e 313 977
e 313 490
e 314 384
e 314 939
e 314 686
e 315 671
e 315 851
e 315 448
e 315 433
e 316 490
e 316 520
e 316 954
e 317 762
e 317 369
e 317 871
e 317 786
e 317 900
e 317 738
e 318 558
e 318 394
e 318 986
e 318 917
e 318 965
e 318 831
e 318 483
e 318 714
e 318 532
e 321 508
e 321 427
e 321 598
e 321 354
e 322 780
e 322 935
e 322 333
e 322 787
e 322 845
e 323 340
e 323 342
e 323 587
e 324 411
e 324 689
e 324 831
e 325 998
e 325 384
e 325 969
e 328 794
e 328 670
e 328 572
e 329 662
e 329 657
e 329 378
e 330 496
e 330 940
e 331 934
e 331 865
e 331 936
e 331 630
e 331 954
e 333 483
e 333 889
e 334 726
e 334 368
e 334 366
e 334 618
e 335 834
e 336 370
e 337 570
e 337 449
e 338 665
e 338 425
e 338 730
e 338 442
e 339 946
e 339 925
e 339 749
e 339 820
e 339 913
e 339 819
e 339 494
e 340 593
e 340 749
e 340 444
e 340 872
e 340 763
e 340 917
e 340 651
e 341 788
e 341 958
e 341 700
e 342 688
e 342 981
e 342 741
e 343 767
e 343 390
e 343 845
e 343 568
e 345 512
e 345 530
e 345 615
e 345 810
e 345 948
e 345 581
e 346 511
e 346 555
e 347 890
e 347 940
e 347 870
e 347 669
e 347 897
e 349 477
e 349 980
e 349 385
e 350 405
e 350 826
e 350 534
e 350 557
e 350 600
e 350 641
e 350 707
e 351 841
e 351 596
e 351 527
e 352 922
e 352 702
e 352 705
e 353 865
e 353 926
e 354 461
e 356 383
e 356 375
e 357 696
e 357 413
e 359 802
e 362 941
e 362 720
e 362 365
e 362 742
e 362 736
e 363 458
e 363 383
e 363 671
e 365 498
e 365 419
e 365 850
e 365 660
e 366 463
e 366 681
e 367 865
e 367 468
e 367 568
e 367 652
e 368 601
e 368 471
e 368 724
e 368 852
e 368 388
e 368 433
e 368 942
e 368 851
e 368 998
e 368 436
e 369 586
e 369 632
e 370 974
e 371 686
e 371 683
e 371 691
e 371 506
e 373 896
e 373 973
e 373 453
e 375 653
e 375 902
e 375 414
e 378 619
e 378 662
e 378 973
e 378 961
e 379 777
e 379 398
e 379 687
e 381 516
e 381 881
e 382 455
e 382 557
e 383 657
e 384 913
e 384 615
e 385 935
e 386 825
e 386 923
e 386 613
e 387 525
e 387 694
e 387 994
e 387 612
e 387 821
e 388 718
e 388 536
e 388 836
e 389 729
e 389 647
e 389 987
e 390 799
e 390 645
e 390 728
e 392 976
e 392 915
e 392 884
e 393 853
e 394 626
e 394 424
e 397 700
e 397 989
e 397 630
e 398 894
e 398 644
e 398 450
e 398 600
e 399 775
e 399 771
e 399 670
e 399 487
e 400 629
e 400 516
e 400 688
e 400 669
e 400 403
e 403 572
e 403 503
e 403 914
e 405 553
e 406 851
e 406 668
e 406 818
e 406 863
e 407 788
e 407 627
e 407 924
e 410 979
e 411 950
e 411 588
e 411 660
e 411 818
e 412 715
e 412 633
e 412 740
e 413 757
e 413 698
e 413 793
e 414 577
e 414 921
e 414 576
e 414 462
e 415 847
e 415 886
e 415 876
e 416 986
e 416 957
e 416 553
e 417 591
e 417 538
e 417 827
e 417 791
e 417 985
e 419 862
e 420 456
e 420 493
e 421 505
e 421 979
e 421 932
e 421 857
e 423 598
e 423 520
e 423 749
e 423 836
e 425 762
e 425 612
e 425 769
e 425 770
e 426 941
e 426 518
e 426 722
e 427 720
e 427 441
e 427 983
e 427 840
e 427 787
e 428 759
e 428 770
e 429 714
e 429 873
e 429 953
e 433 990
e 433 794
e 433 881
e 433 769
e 433 963
e 434 633
e 435 892
e 435 769
e 436 831
e 437 441
e 437 556
e 437 893
e 437 466
e 437 809
e 437 797
e 438 653
e 438 471
e 439 992
e 439 690
e 439 564
e 439 754
e 439 780
e 439 978
e 439 649
e 441 695
e 442 716
e 442 876
e 442 574
e 444 511
e 445 771
e 445 693
e 446 530
e 446 850
e 446 540
e 447 583
e 448 752
e 449 987
e 450 574
e 453 811
e 453 774
e 453 710
e 455 705
e 455 593
e 456 991
e 457 470
e 457 681
e 457 932
e 458 643
e 458 977
e 458 765
e 461 810
e 461 561
e 461 836
e 462 618
e 463 865
e 466 817
e 467 835
e 468 690
e 468 818
e 468 831
e 469 882
e 469 963
e 470 486
e 470 711
e 470 708
e 471 697
e 471 883
e 472 752
e 473 483
e 473 994
e 474 827
e 474 717
e 474 638
e 474 593
e 474 700
e 474 932
e 477 753
e 478 926
e 479 662
e 479 729
e 479 587
e 481 920
e 481 930
e 482 548
e 482 641
e 482 979
e 483 514
e 483 752
e 483 923
e 486 905
e 486 535
e 486 502
e 486 809
e 486 568
e 487 807
e 488 493
e 488 847
e 489 889
e 489 813
e 490 766
e 491 925
e 491 558
e 491 695
e 492 741
e 492 858
e 492 670
e 494 858
e 494 985
e 494 557
e 496 513
e 496 712
e 496 612
e 496 916
e 497 669
e 497 759
e 498 936
e 498 851
e 498 612
e 499 832
e 499 772
e 502 545
e 502 517
e 502 973
e 502 899
e 502 868
e 502 788
e 503 659
e 504 650
e 504 968
e 504 698
e 505 685
e 505 983
e 505 652
e 506 867
e 506 512
e 507 878
e 507 681
e 507 787
e 508 583
e 508 807
e 509 674
e 509 853
e 509 847
e 510 672
e 510 535
e 511 538
e 511 627
e 512 810
e 512 958
e 513 960
e 513 674
e 513 517
e 514 657
e 514 902
e 516 649
e 516 813
e 516 798
e 518 775
e 519 656
e 519 572
e 519 694
e 520 526
e 524 538
e 524 857
e 525 845
e 525 963
e 526 674
e 526 716
e 526 773
e 526 860
e 527 534
e 527 553
e 527 833
e 528 848
e 528 859
e 528 743
e 529 607
e 529 559
e 530 729
e 530 950
e 530 662
e 530 777
e 532 545
e 534 999
e 534 738
e 535 733
e 536 553
e 536 766
e 538 877
e 539 942
e 539 815
e 541 896
e 541 813
e 545 779
e 545 873
e 546 712
e 546 651
e 546 893
e 547 561
e 547 774
e 547 630
e 548 706
e 548 849
e 548 790
e 548 832
e 548 650
e 548 884
e 548 973
e 548 553
e 553 951
e 553 606
e 553 775
e 553 620
e 553 596
e 554 756
e 554 968
e 555 700
e 556 951
e 557 598
e 559 738
e 559 618
e 559 820
e 559 793
e 560 749
e 560 706
e 560 926
e 561 730
e 562 617
e 562 762
e 562 749
e 564 870
e 564 600
e 564 650
e 564 629
e 570 940
e 572 828
e 573 834
e 573 981
e 576 863
e 576 659
e 576 710
e 577 716
e 577 803
e 578 892
e 578 994
e 578 917
e 580 820
e 580 904
e 581 957
e 581 941
e 582 711
e 582 845
e 582 930
e 582 652
e 582 797
e 583 930
e 586 702
e 586 743
e 587 883
e 587 770
e 587 918
e 588 729
e 588 628
e 590 765
e 590 983
e 590 950
e 590 653
e 591 840
e 591 927
e 593 802
e 596 917
e 596 673
e 597 893
e 597 916
e 597 616
e 598 737
e 599 881
e 599 998
e 599 818
e 599 625
e 601 606
e 601 935
e 604 877
e 604 897
e 604 614
e 607 914
e 607 865
e 607 978
e 608 741
e 608 749
e 608 909
e 608 952
e 611 616
e 611 889
e 612 768
e 612 862
e 613 939
e 613 626
e 614 968
e 614 814
e 614 947
e 614 819
e 615 957
e 615 737
e 615 761
e 615 989
e 616 693
e 616 871
e 617 711
e 617 899
e 617 840
e 619 804
e 619 759
e 620 905
e 620 797
e 622 693
e 622 796
e 622 832
e 623 833
e 623 709
e 623 963
e 625 647
e 625 796
e 626 921
e 628 707
e 628 914
e 629 694
e 629 652
e 630 766
e 633 635
e 635 847
e 635 782
e 636 965
e 636 783
e 636 942
e 640 801
e 640 899
e 640 952
e 641 673
e 641 769
e 642 749
e 643 656
e 643 923
e 644 716
e 645 683
e 645 950
e 645 841
e 647 663
e 649 733
e 649 845
e 650 782
e 651 668
e 651 799
e 652 706
e 653 768
e 656 853
e 657 840
e 659 711
e 659 822
e 660 909
e 660 963
e 660 724
e 661 775
e 661 978
e 662 818
e 662 980
e 662 773
e 663 766
e 665 744
e 665 969
e 668 919
e 668 952
e 668 960
e 670 985
e 671 775
e 671 931
e 672 757
e 672 739
e 673 902
e 673 757
e 673 779
e 674 960
e 674 942
e 677 968
e 677 948
e 678 771
e 678 765
e 681 955
e 682 941
e 683 990
e 685 818
e 685 817
e 685 848
e 686 809
e 686 908
e 686 928
e 688 735
e 688 919
e 688 814
e 689 777
e 689 717
e 689 871
e 689 849
e 690 936
e 690 981
e 690 825
e 691 796
e 694 715
e 694 839
e 694 777
e 696 998
e 697 825
e 697 827
e 698 759
e 700 761
e 702 752
e 705 922
e 705 870
e 707 759
e 708 873
e 709 886
e 710 756
e 711 791
e 712 736
e 714 791
e 715 807
e 716 772
e 717 995
e 718 951
e 718 724
e 720 801
e 721 831
e 721 763
e 721 928
e 722 853
e 724 918
e 725 915
e 725 807
e 725 767
e 726 858
e 729 997
e 729 999
e 735 929
e 737 851
e 738 988
e 739 965
e 739 990
e 740 921
e 740 850
e 744 786
e 744 768
e 744 770
e 745 951
e 749 791
e 749 873
e 751 754
e 751 951
e 751 766
e 752 834
e 753 893
e 753 873
e 756 779
e 757 925
e 758 843
e 759 871
e 759 935
e 761 913
e 761 976
e 762 876
e 762 945
e 763 913
e 765 991
e 765 904
e 766 927
e 767 947
e 767 905
e 768 827
e 768 914
e 768 898
e 769 975
e 770 836
e 772 803
e 774 808
e 774 969
e 774 884
e 775 932
e 775 977
e 777 868
e 779 974
e 780 811
e 780 836
e 782 893
e 783 946
e 783 835
e 783 992
e 783 804
e 786 904
e 786 998
e 787 853
e 787 837
e 788 799
e 788 817
e 790 989
e 790 814
e 794 917
e 796 961
e 797 865
e 798 992
e 799 815
e 802 988
e 807 813
e 807 918
e 808 950
e 809 917
e 813 905
e 813 878
e 814 941
e 814 918
e 815 826
e 816 954
e 816 969
e 817 863
e 818 851
e 821 983
e 822 914
e 822 929
e 822 915
e 825 834
e 827 925
e 828 848
e 831 848
e 832 856
e 833 934
e 835 950
e 837 915
e 837 852
e 839 909
e 840 905
e 841 952
e 843 952
e 843 929
e 847 932
e 848 862
e 852 963
e 852 917
e 853 981
e 856 952
e 857 896
e 860 987
e 860 935
e 860 996
e 862 936
e 868 960
e 869 998
e 870 902
e 873 941
e 878 918
e 879 906
e 882 906
e 882 889
e 883 892
e 883 980
e 884 929
e 886 918
e 894 960
e 894 974
e 895 917
e 895 932
e 897 992
e 900 978
e 902 923
e 904 987
e 905 920
e 910 925
e 914 993
e 916 953
e 919 963
e 922 998
e 924 989
e 924 955
e 924 942
e 926 978
e 928 968
e 928 948
e 931 985
e 953 995
e 965 983
e 965 980
e 973 979
e 973 980
